50
10 10
7 2
3 0
3 9
2 2
6 2
0 1
5 2
2 8
4 2
2 4
2 3
6 7
4 0
2 7
9 4
7 1
6 3
3 7
7 8
4 3
1 5
3 6
9 8
4 8
5 5
8 1
2 9
3 8
2 0
9 3
6 6
9 9
9 0
9 5
4 7
2 6
1 2
3 4
4 9
3 3
0 2
7 5
4 5
0 5
1 3
1 0
6 5
1 1
7 4
1 7
